(declare-fun lit$36$Set$32$ () Str)
(declare-fun GHC.Base.id () Int)
(declare-fun fix$36$$36$krep_a76B () Int)
(declare-fun GHC.Stack.Types.FreezeCallStack () Int)
(declare-fun GHC.Base.map () Int)
(declare-fun autolen () Int)
(declare-fun ds_d76U () Int)
(declare-fun lit$36$ParsedCommandRequest () Str)
(declare-fun GHC.Show.$36$fShowMaybe () Int)
(declare-fun GHC.Show.showCommaSpace () Int)
(declare-fun Data.Either.Right () Int)
(declare-fun Commands.Types.Ping () Int)
(declare-fun GHC.Stack.Types.PushCallStack () Int)
(declare-fun GHC.Base.$43$$43$ () Int)
(declare-fun lit$36$$39$Set () Str)
(declare-fun GHC.Types.KindRepTypeLitS () Int)
(declare-fun GHC.Types.True () Bool)
(declare-fun GHC.Base.. () Int)
(declare-fun fix$36$$36$cshowList$35$$35$a763 () Int)
(declare-fun Commands.Types.Set () Int)
(declare-fun head () Int)
(declare-fun fix$36$$36$krep_a76A () Int)
(declare-fun tail () Int)
(declare-fun GHC.Classes.compare () Int)
(declare-fun GHC.Real.quot () Int)
(declare-fun Commands.Types.$36$fEqGetCmd () Int)
(declare-fun fix$36$$36$c$61$$61$$35$$35$a72M () Int)
(declare-fun GHC.Real.$36$W$58$$37$ () Int)
(declare-fun Commands.Types.ParsedCommandRequest () Int)
(declare-fun GHC.Float.sin () Int)
(declare-fun lq_tmp$36$x$35$$35$1441 () Int)
(declare-fun x_Tuple21 () Int)
(declare-fun GHC.Types.KindRepApp () Int)
(declare-fun Commands.Types.$36$fEqParsedCommandRequest () Int)
(declare-fun GHC.Types.KindRepTYPE () Int)
(declare-fun Data.Text.Internal.$36$WText () Int)
(declare-fun Commands.Types.$36$sel$58$key$58$GetCmd () Int)
(declare-fun fix$36$$36$c$47$$61$$35$$35$a74c () Int)
(declare-fun fix$36$$36$c$61$$61$$35$$35$a741 () Int)
(declare-fun lit$36$Commands.Types () Str)
(declare-fun lit$36$InvalidCommand$32$ () Str)
(declare-fun ds_d76P () Int)
(declare-fun lq_anf$36$$35$$35$7205759403792821171$35$$35$d7aH () Int)
(declare-fun fix$36$$36$krep_a76D () Int)
(declare-fun lq_anf$36$$35$$35$7205759403792821237$35$$35$d7bL () Int)
(declare-fun GHC.Real.fromRational () Int)
(declare-fun GHC.Real.recip () Int)
(declare-fun lit$36$key$32$$61$$32$ () Str)
(declare-fun GHC.Num.abs () Int)
(declare-fun GHC.Types.krep$36$$42$ () Int)
(declare-fun GHC.IO.Exception.IOError () Int)
(declare-fun fix$36$$36$c$47$$61$$35$$35$a71C () Int)
(declare-fun lit$36$Ping$32$ () Str)
(declare-fun GHC.Float.$42$$42$ () Int)
(declare-fun x_Tuple22 () Int)
(declare-fun lit$36$SetCmd$32$$123$ () Str)
(declare-fun lq_anf$36$$35$$35$7205759403792821242$35$$35$d7bQ () Int)
(declare-fun RESP.Types.$36$fShowBulkString () Int)
(declare-fun lq_anf$36$$35$$35$7205759403792821227$35$$35$d7bB () Int)
(declare-fun Data.Text.Internal.$36$tcText () Int)
(declare-fun ds_d76R () Int)
(declare-fun GHC.Real.$47$ () Int)
(declare-fun RESP.Types.$36$fEqBulkString () Int)
(declare-fun GHC.Base.$36$ () Int)
(declare-fun Commands.Types.$36$sel$58$command$58$ParsedCommandRequest () Int)
(declare-fun fix$36$$36$cshowsPrec$35$$35$a73r () Int)
(declare-fun GHC.Types.I$35$ () Int)
(declare-fun Data.Text.$36$fEqText () Int)
(declare-fun Commands.Types.$36$fEqCommand () Int)
(declare-fun lq_anf$36$$35$$35$7205759403792821183$35$$35$d7aT () Int)
(declare-fun GHC.Num.negate () Int)
(declare-fun GHC.Types.KindRepFun () Int)
(declare-fun bslen () Int)
(declare-fun lit$36$$39$InvalidCommand () Str)
(declare-fun Data.Text.Show.$36$fShowText () Int)
(declare-fun GHC.Types.KindRepVar () Int)
(declare-fun lit$36$Echo$32$ () Str)
(declare-fun GHC.Num.Integer.IN () Int)
(declare-fun lq_tmp$36$x$35$$35$2015 () Int)
(declare-fun GHC.Enum.C$58$Bounded () Int)
(declare-fun lqdc$35$$35$$36$select$35$$35$GHC.Maybe.Just$35$$35$1 () Int)
(declare-fun GHC.Float.atanh () Int)
(declare-fun GHC.Prim.dataToTag$35$ () Int)
(declare-fun GHC.Show.showList__ () Int)
(declare-fun fix$36$$36$c$47$$61$$35$$35$a735 () Int)
(declare-fun lit$36$$125$ () Str)
(declare-fun lq_tmp$36$x$35$$35$1204 () Int)
(declare-fun GHC.Types.$36$WKindRepTYPE () Int)
(declare-fun GHC.Types.$36$WKindRepVar () Int)
(declare-fun GHC.Classes.$36$fEq$91$$93$ () Int)
(declare-fun Commands.Types.SetCmd () Int)
(declare-fun GHC.Types.$58$ () Int)
(declare-fun Data.Either.Left () Int)
(declare-fun lq_tmp$36$x$35$$35$2029 () Int)
(declare-fun GHC.Float.atan () Int)
(declare-fun lq_anf$36$$35$$35$7205759403792821222$35$$35$d7bw () Int)
(declare-fun GHC.Float.log () Int)
(declare-fun lit$36$Get$32$ () Str)
(declare-fun GHC.Types.Module () Int)
(declare-fun GHC.Tuple.$40$$44$$44$$41$ () Int)
(declare-fun Commands.Types.$36$fShowCommand () Int)
(declare-fun totalityError () Int)
(declare-fun GHC.Num.fromInteger () Int)
(declare-fun GHC.Real.fromIntegral () Int)
(declare-fun GHC.Float.asin () Int)
(declare-fun lit$36$Pattern$32$match$40$es$41$$32$are$32$non$45$exhaustive () Str)
(declare-fun GHC.Classes.$61$$61$ () Int)
(declare-fun fix$36$$36$cshow$35$$35$a73K () Int)
(declare-fun Control.Exception.Base.patError () Int)
(declare-fun GHC.Types.TrNameD () Int)
(declare-fun GHC.Types.EQ () Int)
(declare-fun GHC.Types.TyCon () Int)
(declare-fun lq_anf$36$$35$$35$7205759403792821211$35$$35$d7bl () Int)
(declare-fun lit$36$hs$45$redis$45$clone$45$0.1.0.0$45$dlghi72xSz9Rj7lKm8c5D () Str)
(declare-fun Commands.Types.Get () Int)
(declare-fun GHC.Float.tanh () Int)
(declare-fun fix$36$$36$cshow$35$$35$a74Q () Int)
(declare-fun GHC.Types.$36$tc$91$$93$ () Int)
(declare-fun fix$36$$36$cshow$35$$35$a72v () Int)
(declare-fun lit$36$$39$Echo () Str)
(declare-fun GHC.Maybe.Nothing () Int)
(declare-fun x_Tuple32 () Int)
(declare-fun fix$36$$36$c$61$$61$$35$$35$a757 () Int)
(declare-fun GHC.Types.LT () Int)
(declare-fun fix$36$$36$c$47$$61$$35$$35$a75i () Int)
(declare-fun Data.Tuple.snd () Int)
(declare-fun GHC.Show.showsPrec () Int)
(declare-fun GHC.Types.False () Bool)
(declare-fun x_Tuple33 () Int)
(declare-fun GHC.Types.GT () Int)
(declare-fun GHC.Real.mod () Int)
(declare-fun GHC.Show.showParen () Int)
(declare-fun Commands.Types.$36$sel$58$val$58$SetCmd () Int)
(declare-fun GHC.Classes.not () Int)
(declare-fun Commands.Types.$36$sel$58$key$58$SetCmd () Int)
(declare-fun Data.Text.Internal.Text () Int)
(declare-fun GHC.Tuple.$40$$41$ () Int)
(declare-fun Commands.Types.Echo () Int)
(declare-fun fix$36$$36$krep_a76p () Int)
(declare-fun lit$36$SetCmd () Str)
(declare-fun GHC.Float.cosh () Int)
(declare-fun liquid_internal_this () Int)
(declare-fun lq_tmp$36$x$35$$35$1421 () Int)
(declare-fun Commands.Types.InvalidCommand () Int)
(declare-fun snd () Int)
(declare-fun x_Tuple31 () Int)
(declare-fun GHC.Err.error () Int)
(declare-fun fix$36$$36$cshowList$35$$35$a74X () Int)
(declare-fun GHC.Classes.$36$fOrdInt () Int)
(declare-fun lq_tmp$36$x$35$$35$1763 () Int)
(declare-fun RESP.Types.NullBulkString () Int)
(declare-fun GHC.Float.tan () Int)
(declare-fun GHC.Float.acos () Int)
(declare-fun len () Int)
(declare-fun GHC.Show.showString () Int)
(declare-fun GHC.Classes.$60$ () Int)
(declare-fun lq_tmp$36$x$35$$35$1485 () Int)
(declare-fun lq_tmp$36$x$35$$35$1522 () Int)
(declare-fun lit$36$ParsedCommandRequest$32$$123$ () Str)
(declare-fun GHC.Num.Integer.IP () Int)
(declare-fun lit$36$command$32$$61$$32$ () Str)
(declare-fun GHC.Show.$36$fShow$91$$93$ () Int)
(declare-fun lq_tmp$36$x$35$$35$1625 () Int)
(declare-fun Commands.Types.$36$fShowSetCmd () Int)
(declare-fun stringlen () Int)
(declare-fun GHC.Classes.$62$$61$ () Int)
(declare-fun addrLen () Int)
(declare-fun cast_as_int () Int)
(declare-fun lq_anf$36$$35$$35$7205759403792821194$35$$35$d7b4 () Int)
(declare-fun GHC.Maybe.Just () Int)
(declare-fun GHC.Types.KindRepTypeLitD () Int)
(declare-fun lq_tmp$36$x$35$$35$1549 () Int)
(declare-fun lq_anf$36$$35$$35$7205759403792821200$35$$35$d7ba () Int)
(declare-fun fix$36$$36$krep_a76w () Int)
(declare-fun lq_tmp$36$x$35$$35$1505 () Int)
(declare-fun GHC.Real.divMod () Int)
(declare-fun GHC.Classes.$62$ () Int)
(declare-fun lq_anf$36$$35$$35$7205759403792821173$35$$35$d7aJ () Int)
(declare-fun cast_as () Int)
(declare-fun fix$36$$36$krep_a76t () Int)
(declare-fun lit$36$GetCmd () Str)
(declare-fun lit$36$val$32$$61$$32$ () Str)
(declare-fun GHC.Float.pi () Int)
(declare-fun GHC.Float.acosh () Int)
(declare-fun fix$36$$36$cshowsPrec$35$$35$a74m () Int)
(declare-fun GHC.Classes.min () Int)
(declare-fun Commands.Types.$36$fEqSetCmd () Int)
(declare-fun fix$36$$36$krep_a76u () Int)
(declare-fun GHC.Num.Integer.IS () Int)
(declare-fun GHC.Classes.$38$$38$ () Int)
(declare-fun Commands.Types.$36$fShowParsedCommandRequest () Int)
(declare-fun GHC.Float.sqrt () Int)
(declare-fun lit$36$args$32$$61$$32$ () Str)
(declare-fun GHC.Float.logBase () Int)
(declare-fun GHC.Float.sinh () Int)
(declare-fun GHC.Real.quotRem () Int)
(declare-fun fix$36$$36$krep_a76z () Int)
(declare-fun GHC.Classes.max () Int)
(declare-fun papp3 () Int)
(declare-fun fix$36$$36$cshowList$35$$35$a73R () Int)
(declare-fun Commands.Types.$36$fShowGetCmd () Int)
(declare-fun GHC.Classes.C$58$Eq () Int)
(declare-fun ds_d76M () Int)
(declare-fun GHC.Real.div () Int)
(declare-fun GHC.Real.$94$ () Int)
(declare-fun GHC.Types.TrNameS () Int)
(declare-fun fst () Int)
(declare-fun lq_tmp$36$x$35$$35$1387 () Int)
(declare-fun lq_tmp$36$x$35$$35$1611 () Int)
(declare-fun papp2 () Int)
(declare-fun GHC.Num.$45$ () Int)
(declare-fun fix$36$$36$cshowsPrec$35$$35$a71M () Int)
(declare-fun ds_d76L () Int)
(declare-fun lq_tmp$36$x$35$$35$1458 () Int)
(declare-fun GHC.Prim.$47$$61$$35$ () Int)
(declare-fun lit$36$Command () Str)
(declare-fun GHC.Types.C$35$ () Int)
(declare-fun papp1 () Int)
(declare-fun Data.Tuple.fst () Int)
(declare-fun lq_tmp$36$x$35$$35$1465 () Int)
(declare-fun lq_tmp$36$x$35$$35$1887 () Int)
(declare-fun lit$36$$39$GetCmd () Str)
(declare-fun ds_d76O () Int)
(declare-fun GHC.Float.asinh () Int)
(declare-fun lit$36$GetCmd$32$$123$ () Str)
(declare-fun fix$36$$36$krep_a76y () Int)
(declare-fun fix$36$$36$cshowsPrec$35$$35$a75s () Int)
(declare-fun fix$36$$36$cshow$35$$35$a75W () Int)
(declare-fun lq_anf$36$$35$$35$7205759403792821205$35$$35$d7bf () Int)
(declare-fun GHC.Classes.$47$$61$ () Int)
(declare-fun GHC.Float.cos () Int)
(declare-fun GHC.Float.exp () Int)
(declare-fun GHC.Show.C$58$Show () Int)
(declare-fun lq_tmp$36$x$35$$35$1373 () Int)
(declare-fun fix$36$$36$c$61$$61$$35$$35$a70T () Int)
(declare-fun lit$36$$39$Ping () Str)
(declare-fun RESP.Types.$36$tcBulkString () Int)
(declare-fun papp7 () Int)
(declare-fun GHC.Types.KindRepTyConApp () Int)
(declare-fun GHC.Types.$91$$93$ () Int)
(declare-fun RESP.Types.BulkString () Int)
(declare-fun GHC.Real.toInteger () Int)
(declare-fun lq_anf$36$$35$$35$7205759403792821216$35$$35$d7bq () Int)
(declare-fun lq_anf$36$$35$$35$7205759403792821232$35$$35$d7bG () Int)
(declare-fun lq_tmp$36$x$35$$35$1901 () Int)
(declare-fun lq_anf$36$$35$$35$7205759403792821189$35$$35$d7aZ () Int)
(declare-fun lit$36$$39$Get () Str)
(declare-fun GHC.Real.$58$$37$ () Int)
(declare-fun GHC.Stack.Types.EmptyCallStack () Int)
(declare-fun GHC.Real.rem () Int)
(declare-fun papp6 () Int)
(declare-fun lit$36$$39$ParsedCommandRequest () Str)
(declare-fun GHC.Classes.C$58$IP () Int)
(declare-fun fix$36$$36$cshowList$35$$35$a72C () Int)
(declare-fun GHC.CString.unpackCString$35$ () Int)
(declare-fun lit$36$src$47$Commands$47$Types.hs$58$14$58$104$45$105$124$case () Str)
(declare-fun lit$36$$39$SetCmd () Str)
(declare-fun papp5 () Int)
(declare-fun GHC.Maybe.$36$fEqMaybe () Int)
(declare-fun GHC.Num.$42$ () Int)
(declare-fun lq_tmp$36$x$35$$35$1407 () Int)
(declare-fun GHC.Maybe.$36$tcMaybe () Int)
(declare-fun GHC.Classes.$60$$61$ () Int)
(declare-fun Commands.Types.GetCmd () Int)
(declare-fun GHC.Classes.$124$$124$ () Int)
(declare-fun lq_tmp$36$x$35$$35$1529 () Int)
(declare-fun GHC.Tuple.$40$$44$$41$ () Int)
(declare-fun Commands.Types.$36$sel$58$args$58$ParsedCommandRequest () Int)
(declare-fun papp4 () Int)
(declare-fun lq_tmp$36$x$35$$35$1749 () Int)
(declare-fun GHC.Num.$43$ () Int)
(declare-fun apply$35$$35$15 (Int (_ BitVec 32)) Int)
(declare-fun apply$35$$35$4 (Int Int) (_ BitVec 64))
(declare-fun apply$35$$35$20 (Int (_ BitVec 64)) Int)
(declare-fun apply$35$$35$3 (Int Int) (_ BitVec 32))
(declare-fun apply$35$$35$18 (Int (_ BitVec 32)) (_ BitVec 32))
(declare-fun apply$35$$35$24 (Int (_ BitVec 64)) (_ BitVec 64))
(declare-fun apply$35$$35$19 (Int (_ BitVec 32)) (_ BitVec 64))
(declare-fun apply$35$$35$6 (Int Bool) Bool)
(declare-fun apply$35$$35$23 (Int (_ BitVec 64)) (_ BitVec 32))
(declare-fun apply$35$$35$0 (Int Int) Int)
(declare-fun apply$35$$35$12 (Int Str) Str)
(declare-fun apply$35$$35$7 (Int Bool) Str)
(declare-fun apply$35$$35$11 (Int Str) Bool)
(declare-fun apply$35$$35$17 (Int (_ BitVec 32)) Str)
(declare-fun apply$35$$35$13 (Int Str) (_ BitVec 32))
(declare-fun apply$35$$35$22 (Int (_ BitVec 64)) Str)
(declare-fun apply$35$$35$14 (Int Str) (_ BitVec 64))
(declare-fun apply$35$$35$16 (Int (_ BitVec 32)) Bool)
(declare-fun apply$35$$35$8 (Int Bool) (_ BitVec 32))
(declare-fun apply$35$$35$21 (Int (_ BitVec 64)) Bool)
(declare-fun apply$35$$35$9 (Int Bool) (_ BitVec 64))
(declare-fun apply$35$$35$5 (Int Bool) Int)
(declare-fun apply$35$$35$1 (Int Int) Bool)
(declare-fun apply$35$$35$2 (Int Int) Str)
(declare-fun apply$35$$35$10 (Int Str) Int)
(declare-fun coerce$35$$35$15 ((_ BitVec 32)) Int)
(declare-fun coerce$35$$35$4 (Int) (_ BitVec 64))
(declare-fun coerce$35$$35$20 ((_ BitVec 64)) Int)
(declare-fun coerce$35$$35$3 (Int) (_ BitVec 32))
(declare-fun coerce$35$$35$18 ((_ BitVec 32)) (_ BitVec 32))
(declare-fun coerce$35$$35$24 ((_ BitVec 64)) (_ BitVec 64))
(declare-fun coerce$35$$35$19 ((_ BitVec 32)) (_ BitVec 64))
(declare-fun coerce$35$$35$6 (Bool) Bool)
(declare-fun coerce$35$$35$23 ((_ BitVec 64)) (_ BitVec 32))
(declare-fun coerce$35$$35$0 (Int) Int)
(declare-fun coerce$35$$35$12 (Str) Str)
(declare-fun coerce$35$$35$7 (Bool) Str)
(declare-fun coerce$35$$35$11 (Str) Bool)
(declare-fun coerce$35$$35$17 ((_ BitVec 32)) Str)
(declare-fun coerce$35$$35$13 (Str) (_ BitVec 32))
(declare-fun coerce$35$$35$22 ((_ BitVec 64)) Str)
(declare-fun coerce$35$$35$14 (Str) (_ BitVec 64))
(declare-fun coerce$35$$35$16 ((_ BitVec 32)) Bool)
(declare-fun coerce$35$$35$8 (Bool) (_ BitVec 32))
(declare-fun coerce$35$$35$21 ((_ BitVec 64)) Bool)
(declare-fun coerce$35$$35$9 (Bool) (_ BitVec 64))
(declare-fun coerce$35$$35$5 (Bool) Int)
(declare-fun coerce$35$$35$1 (Int) Bool)
(declare-fun coerce$35$$35$2 (Int) Str)
(declare-fun coerce$35$$35$10 (Str) Int)
(declare-fun smt_lambda$35$$35$15 ((_ BitVec 32) Int) Int)
(declare-fun smt_lambda$35$$35$4 (Int (_ BitVec 64)) Int)
(declare-fun smt_lambda$35$$35$20 ((_ BitVec 64) Int) Int)
(declare-fun smt_lambda$35$$35$3 (Int (_ BitVec 32)) Int)
(declare-fun smt_lambda$35$$35$18 ((_ BitVec 32) (_ BitVec 32)) Int)
(declare-fun smt_lambda$35$$35$24 ((_ BitVec 64) (_ BitVec 64)) Int)
(declare-fun smt_lambda$35$$35$19 ((_ BitVec 32) (_ BitVec 64)) Int)
(declare-fun smt_lambda$35$$35$6 (Bool Bool) Int)
(declare-fun smt_lambda$35$$35$23 ((_ BitVec 64) (_ BitVec 32)) Int)
(declare-fun smt_lambda$35$$35$0 (Int Int) Int)
(declare-fun smt_lambda$35$$35$12 (Str Str) Int)
(declare-fun smt_lambda$35$$35$7 (Bool Str) Int)
(declare-fun smt_lambda$35$$35$11 (Str Bool) Int)
(declare-fun smt_lambda$35$$35$17 ((_ BitVec 32) Str) Int)
(declare-fun smt_lambda$35$$35$13 (Str (_ BitVec 32)) Int)
(declare-fun smt_lambda$35$$35$22 ((_ BitVec 64) Str) Int)
(declare-fun smt_lambda$35$$35$14 (Str (_ BitVec 64)) Int)
(declare-fun smt_lambda$35$$35$16 ((_ BitVec 32) Bool) Int)
(declare-fun smt_lambda$35$$35$8 (Bool (_ BitVec 32)) Int)
(declare-fun smt_lambda$35$$35$21 ((_ BitVec 64) Bool) Int)
(declare-fun smt_lambda$35$$35$9 (Bool (_ BitVec 64)) Int)
(declare-fun smt_lambda$35$$35$5 (Bool Int) Int)
(declare-fun smt_lambda$35$$35$1 (Int Bool) Int)
(declare-fun smt_lambda$35$$35$2 (Int Str) Int)
(declare-fun smt_lambda$35$$35$10 (Str Int) Int)
(declare-fun lam_arg$35$$35$1$35$$35$15 () (_ BitVec 32))
(declare-fun lam_arg$35$$35$2$35$$35$15 () (_ BitVec 32))
(declare-fun lam_arg$35$$35$3$35$$35$15 () (_ BitVec 32))
(declare-fun lam_arg$35$$35$4$35$$35$15 () (_ BitVec 32))
(declare-fun lam_arg$35$$35$5$35$$35$15 () (_ BitVec 32))
(declare-fun lam_arg$35$$35$6$35$$35$15 () (_ BitVec 32))
(declare-fun lam_arg$35$$35$7$35$$35$15 () (_ BitVec 32))
(declare-fun lam_arg$35$$35$1$35$$35$20 () (_ BitVec 64))
(declare-fun lam_arg$35$$35$2$35$$35$20 () (_ BitVec 64))
(declare-fun lam_arg$35$$35$3$35$$35$20 () (_ BitVec 64))
(declare-fun lam_arg$35$$35$4$35$$35$20 () (_ BitVec 64))
(declare-fun lam_arg$35$$35$5$35$$35$20 () (_ BitVec 64))
(declare-fun lam_arg$35$$35$6$35$$35$20 () (_ BitVec 64))
(declare-fun lam_arg$35$$35$7$35$$35$20 () (_ BitVec 64))
(declare-fun lam_arg$35$$35$1$35$$35$0 () Int)
(declare-fun lam_arg$35$$35$2$35$$35$0 () Int)
(declare-fun lam_arg$35$$35$3$35$$35$0 () Int)
(declare-fun lam_arg$35$$35$4$35$$35$0 () Int)
(declare-fun lam_arg$35$$35$5$35$$35$0 () Int)
(declare-fun lam_arg$35$$35$6$35$$35$0 () Int)
(declare-fun lam_arg$35$$35$7$35$$35$0 () Int)
(declare-fun lam_arg$35$$35$1$35$$35$5 () Bool)
(declare-fun lam_arg$35$$35$2$35$$35$5 () Bool)
(declare-fun lam_arg$35$$35$3$35$$35$5 () Bool)
(declare-fun lam_arg$35$$35$4$35$$35$5 () Bool)
(declare-fun lam_arg$35$$35$5$35$$35$5 () Bool)
(declare-fun lam_arg$35$$35$6$35$$35$5 () Bool)
(declare-fun lam_arg$35$$35$7$35$$35$5 () Bool)
(declare-fun lam_arg$35$$35$1$35$$35$10 () Str)
(declare-fun lam_arg$35$$35$2$35$$35$10 () Str)
(declare-fun lam_arg$35$$35$3$35$$35$10 () Str)
(declare-fun lam_arg$35$$35$4$35$$35$10 () Str)
(declare-fun lam_arg$35$$35$5$35$$35$10 () Str)
(declare-fun lam_arg$35$$35$6$35$$35$10 () Str)
(declare-fun lam_arg$35$$35$7$35$$35$10 () Str)




(assert (distinct lit$36$$39$SetCmd lit$36$src$47$Commands$47$Types.hs$58$14$58$104$45$105$124$case lit$36$$39$ParsedCommandRequest lit$36$$39$Get lit$36$$39$Ping lit$36$GetCmd$32$$123$ lit$36$$39$GetCmd lit$36$Command lit$36$args$32$$61$$32$ lit$36$val$32$$61$$32$ lit$36$GetCmd lit$36$command$32$$61$$32$ lit$36$ParsedCommandRequest$32$$123$ lit$36$SetCmd lit$36$$39$Echo lit$36$hs$45$redis$45$clone$45$0.1.0.0$45$dlghi72xSz9Rj7lKm8c5D lit$36$Pattern$32$match$40$es$41$$32$are$32$non$45$exhaustive lit$36$Get$32$ lit$36$$125$ lit$36$Echo$32$ lit$36$$39$InvalidCommand lit$36$SetCmd$32$$123$ lit$36$Ping$32$ lit$36$key$32$$61$$32$ lit$36$InvalidCommand$32$ lit$36$Commands.Types lit$36$$39$Set lit$36$ParsedCommandRequest lit$36$Set$32$))




(assert (distinct GHC.Types.False GHC.Types.True))



(assert (distinct GHC.Types.GT GHC.Types.LT GHC.Types.EQ))
(assert (= (strLen lit$36$Set$32$) 4))
(assert (= (strLen lit$36$ParsedCommandRequest) 20))
(assert (= (strLen lit$36$$39$Set) 4))
(assert (= (strLen lit$36$Commands.Types) 14))
(assert (= (strLen lit$36$InvalidCommand$32$) 15))
(assert (= (strLen lit$36$key$32$$61$$32$) 6))
(assert (= (strLen lit$36$Ping$32$) 5))
(assert (= (strLen lit$36$SetCmd$32$$123$) 8))
(assert (= (strLen lit$36$$39$InvalidCommand) 15))
(assert (= (strLen lit$36$Echo$32$) 5))
(assert (= (strLen lit$36$$125$) 1))
(assert (= (strLen lit$36$Get$32$) 4))
(assert (= (strLen lit$36$Pattern$32$match$40$es$41$$32$are$32$non$45$exhaustive) 36))
(assert (= (strLen lit$36$hs$45$redis$45$clone$45$0.1.0.0$45$dlghi72xSz9Rj7lKm8c5D) 44))
(assert (= (strLen lit$36$$39$Echo) 5))
(assert (= (strLen lit$36$SetCmd) 6))
(assert (= (strLen lit$36$ParsedCommandRequest$32$$123$) 22))
(assert (= (strLen lit$36$command$32$$61$$32$) 10))
(assert (= (strLen lit$36$GetCmd) 6))
(assert (= (strLen lit$36$val$32$$61$$32$) 6))
(assert (= (strLen lit$36$args$32$$61$$32$) 7))
(assert (= (strLen lit$36$Command) 7))
(assert (= (strLen lit$36$$39$GetCmd) 7))
(assert (= (strLen lit$36$GetCmd$32$$123$) 8))
(assert (= (strLen lit$36$$39$Ping) 5))
(assert (= (strLen lit$36$$39$Get) 4))
(assert (= (strLen lit$36$$39$ParsedCommandRequest) 21))
(assert (= (strLen lit$36$src$47$Commands$47$Types.hs$58$14$58$104$45$105$124$case) 37))
(assert (= (strLen lit$36$$39$SetCmd) 7))
(push 1)
(push 1)
(pop 1)
(pop 1)
